1288154
4,34,97,100,33,51,15,106,93,80,1,50,83,58,45,28,24,2,82,62,19,3,66,78,43,42,31,94,84,60,5,29,102,55,91,73,47,79,16,52,20,104,86,18,61,72,98,75,49,17,6,87,64,11,54,77,32,107,105,59,41,95,92,12,67,39,27,7,35,46,70,53,101,99,57,103,96,88,90,10,48,30,38,13,69,68,26,85,74,56,71,37,40,25,36,8,76,65,9,63,21,14,22,23,108,89,44,81,0
